36039.04,36.24,39.91
38417.66,34.0,37.44
36074.04,36.21,39.88
37766.1,34.59,38.09
37230.35,35.09,38.64
35711.27,36.58,40.28
38447.3,33.97,37.41
38424.35,34.0,37.44
32919.35,39.68,43.7
36552.94,35.74,39.35
35660.12,36.63,40.34
37274.4,35.04,38.59
36421.4,35.86,39.5
34445.23,37.92,41.76
35529.49,36.76,40.49
33955.98,38.47,42.36
42227.21,30.93,34.07
34218.22,38.17,42.04
38464.15,33.96,37.4
41244.6,31.67,34.88
